(declare-fun a () Int)
(declare-fun b () Int)
(assert (>= a 0))
(assert (>= b 0))
(assert (=> (< a 30) (= (mod b 3) 0)))
(assert (ite (>= a 30) (= (mod b 5) 0) (= (mod b 6) 0)))
(assert (<= a 60))
(assert (<= b 60))
(check-sat)
